NAME: ../File/prFile/tspFile/tsp_file10.tsp
COMMENT: TSP file generated by Python
TYPE: TSP
DIMENSION: 30
EDGE_WEIGHT_TYPE: EUC_2D
NODE_COORD_SECTION
1 78 83
2 47 24
3 100 88
4 67 44
5 9 80
6 68 83
7 25 40
8 62 91
9 77 39
10 76 95
11 11 1
12 38 54
13 52 11
14 25 20
15 27 3
16 46 73
17 71 93
18 58 38
19 5 74
20 59 82
21 56 42
22 61 51
23 21 69
24 39 49
25 41 72
26 14 33
27 93 38
28 97 70
29 49 53
30 48 54
EOF
